c array.sh: path:     /data/qbf/qbf20/PCNF/c6_BMC_p2_k1024.qdimacs
c array.sh: name:     c6_BMC_p2_k1024
c array.sh: task:     25
c array.sh: host:     c3n13
c array.sh: uname:    Linux c3n13 4.15.0-135-generic #139-Ubuntu SMP Mon Jan 18 17:38:24 UTC 2021 x86_64 x86_64 x86_64 GNU/Linux
c array.sh: start:    Tue Feb 16 22:43:50 CET 2021
c array.sh: noturbo:  1
c array.sh: governor: 32 performance
c array.sh: tmp:      1%
c array.sh: unzipped: /tmp/local-unzipped-18834727-25-c6_BMC_p2_k1024.cnf
using tmp directory:
  /tmp
running QBF solver...

/home/seidl/cert_tests/bin/ferp-models/ijtihad/ijtihad --dependencies=0 --wit_per_call=-1 --cex_per_call=-1 --log_phi=/tmp/ferpcert2867expanded.cnf /tmp/local-unzipped-18834727-25-c6_BMC_p2_k1024.cnf
c Options after parsing: 
c cex_per_call = 18446744073709551615
c wit_per_call = 18446744073709551615
c warmup = 1
c warmup_randoms = 0
c trimming_phi = 0
c trimming_ksi = 2
c trimming_interval = 200
c memory_limit = 3000000
c MySolverv970-glucose
-1 -2 -3 -4 
1 2 3 4 
c Number of calls is: 0
c Layers in PHI: 0
c Layers in KSI: 0
c Running Ijtihad loop
c sat_solver_phi calld 0 times, running for 1e-06 seconds.
c number of layers in PHI is 2
c sat_solver_ksi was running for 0 seconds.
c number of layers in KSI is 0
c mysolver was running for 0.721691 seconds.
s cnf 0
solving done with exit code 20

QBF solver OK

running SAT Solver...

/tmp/ferpcert2867expanded.cnf
s UNSATISFIABLE

PROOF GENERATION OK

checking unsat proof

resolved 1 root and 1 empty clause
trace-size2: 913

TRACE CHECK OK

running toferp...

ferp-size: 738
TOFERP OK

checking FERP PROOF...

c Warning: Variable count mismatch 135692 135693
FERP CHECK OK

extracting AIG ...

aig-size: 894358
aig-header: aag 135711 135624 0 4 22
FERP CERT OK

merging  AIG into QBF ...

CERTCHECK OK

merged-cnf-header: p cnf 1112326 2522831
merged-cnf-size: 48826431
running SAT solver...

c ---- [ banner ] ------------------------------------------------------------
c
c KISSAT SAT Solver
c Copyright (c) 2019-2020 Armin Biere JKU Linz
c 
c Version 1.0.3 59813addcacc4d6fb880ebdd63685600475aa940
c gcc (Ubuntu 7.5.0-3ubuntu1~18.04) 7.5.0 -W -Wall -O3 -DNEMBEDDED -DNDEBUG -DNMETRICS -DNSTATISTICS
c Sun Feb 14 23:58:54 CET 2021 Linux cluster3 4.15.0-135-generic x86_64
c
c ---- [ parsing ] -----------------------------------------------------------
c
c opened and reading DIMACS file:
c 
c   /tmp/ferpcert_merged_cnf2867.cnf
c 
c parsed 'p cnf 1112326 2522831' header
c closing input after reading 48826431 bytes (47 MB)
c finished parsing after 0.69 seconds
c
c ---- [ solving ] -----------------------------------------------------------
c
c  seconds  reductions redundant irredundant
c          MB   restarts    trail        variables
c           level  conflicts   glue            remaining
c
c *  0.69 124 0  0  0   1   0 0% 0 2522829 909835 82%
c {  0.69 124 0  0  0   1   0 0% 0 2522829 909835 82%
c }  0.69 124 0  0  0   1   0 0% 0 2522829 909835 82%
c 0  0.69 124 0  0  0   1   0 0% 0 2522829 909835 82%
c
c ---- [ result ] ------------------------------------------------------------
c
s UNSATISFIABLE
c
c ---- [ profiling ] ---------------------------------------------------------
c
c           0.69   99.95 %  parse
c           0.00    0.02 %  search
c           0.00    0.01 %  focused
c           0.00    0.00 %  simplify
c =============================================
c           0.69  100.00 %  total
c
c ---- [ statistics ] --------------------------------------------------------
c
c conflicts:                                1                1.46 per second
c decisions:                                0                0.00 per conflict
c propagations:                         66724            97207    per second
c
c ---- [ resources ] ---------------------------------------------------------
c
c maximum-resident-set-size:        129687552 bytes        124 MB
c process-time:                             0s               0.69 seconds
c
c ---- [ shutting down ] -----------------------------------------------------
c
c exit 20

SAT solver OK

VALID
c array.sh: end:      Tue Feb 16 22:44:02 CET 2021
